************************************************************************
file with basedata            : mb14_.bas
initial value random generator: 1318473464
************************************************************************
projects                      :  1
jobs (incl. supersource/sink ):  12
horizon                       :  81
RESOURCES
  - renewable                 :  2   R
  - nonrenewable              :  2   N
  - doubly constrained        :  0   D
************************************************************************
PROJECT INFORMATION:
pronr.  #jobs rel.date duedate tardcost  MPM-Time
    1     10      0       14        5       14
************************************************************************
PRECEDENCE RELATIONS:
jobnr.    #modes  #successors   successors
   0        1          3           1   2   3
   1        3          3           7   9  10
   2        3          2           4   8
   3        3          1           5
   4        3          1           6
   5        3          2           6   7
   6        3          2           9  10
   7        3          1           8
   8        3          1          11
   9        3          1          11
  10        3          1          11
  11        1          0        
************************************************************************
REQUESTS/DURATIONS:
jobnr. mode duration  R 1  R 2  R 3  R 4  E(W 1)  E(W 2)
------------------------------------------------------------------------
  0      1     0       0    0    0    0     0       0
  1      1     3       9   10    6    2    57      24
  2      1     4       9    7    6    7    64      52
  3      1     3       5    6    7    6    33      39
  4      1     1       8    4    6    3    12       9
  5      1     3       7    9    6    6    48      36
  6      1     1       7   10    8    8    17      16
  7      1     7       7    8    7    4    105      77
  8      1     1       5    8    5    6    13      11
  9      1     3       4    9    6   10    39      48
 10      1     2      10    5    8   10    30      36
 11      1     0       0    0    0    0     0       0
************************************************************************
RESOURCEAVAILABILITIES:
  R 1  R 2
   23   133
************************************************************************
RESOURCE LIMITS:
jobnr.  l(R 1)  u(R 1)  l(R 2)  u(R 2)
------------------------------------------------------------------------
  0        0       0       0       0
  1       10      19       4       8
  2        9      16       7      13
  3        6      11       7      13
  4        6      12       5       9
  5        9      16       6      12
  6        9      17       8      16
  7        8      15       6      11
  8        7      13       6      11
  9        7      13       8      16
 10        8      15       9      18
 11        0       0       0       0
************************************************************************
SCENARIOS:
------------------------------------------------------------------------
RESOURCE k = 1
s = 1: (0, 50, 35, 22, 16, 43, 13, 99, 15, 28, 40, 0)
s = 2: (0, 46, 83, 55, 8, 31, 12, 115, 16, 31, 29, 0)
s = 3: (0, 74, 72, 35, 8, 41, 15, 147, 12, 44, 44, 0)
s = 4: (0, 63, 61, 33, 11, 61, 15, 101, 14, 48, 24, 0)
s = 5: (0, 53, 43, 48, 15, 53, 10, 74, 17, 59, 41, 0)
s = 6: (0, 42, 66, 36, 9, 39, 11, 58, 17, 56, 49, 0)
s = 7: (0, 45, 63, 40, 18, 54, 10, 100, 17, 70, 26, 0)
s = 8: (0, 73, 58, 34, 14, 70, 16, 134, 14, 27, 22, 0)
s = 9: (0, 45, 39, 23, 11, 37, 23, 60, 18, 35, 44, 0)
s = 10: (0, 46, 67, 35, 8, 44, 20, 80, 13, 25, 18, 0)
s = 11: (0, 34, 58, 36, 15, 30, 23, 93, 12, 25, 27, 0)
s = 12: (0, 58, 70, 22, 17, 61, 20, 117, 10, 27, 21, 0)
s = 13: (0, 50, 67, 25, 16, 50, 16, 79, 17, 39, 34, 0)
s = 14: (0, 56, 63, 48, 7, 40, 12, 96, 20, 36, 32, 0)
s = 15: (0, 38, 58, 30, 15, 66, 10, 93, 9, 24, 49, 0)
s = 16: (0, 37, 51, 50, 12, 31, 13, 127, 15, 39, 25, 0)
s = 17: (0, 77, 80, 51, 11, 60, 22, 113, 10, 62, 19, 0)
s = 18: (0, 48, 38, 26, 17, 65, 20, 94, 16, 28, 27, 0)
s = 19: (0, 81, 101, 41, 10, 46, 12, 100, 10, 37, 26, 0)
s = 20: (0, 48, 42, 48, 10, 41, 11, 94, 11, 62, 46, 0)
s = 21: (0, 62, 69, 42, 14, 64, 19, 142, 11, 45, 21, 0)
s = 22: (0, 72, 83, 28, 21, 58, 24, 141, 14, 33, 39, 0)
s = 23: (0, 67, 51, 25, 15, 44, 15, 64, 8, 56, 18, 0)
s = 24: (0, 39, 76, 31, 15, 49, 17, 90, 12, 55, 29, 0)
s = 25: (0, 67, 49, 37, 11, 55, 23, 117, 18, 30, 30, 0)
s = 26: (0, 105, 52, 30, 16, 50, 17, 109, 10, 22, 27, 0)
s = 27: (0, 45, 42, 22, 9, 51, 22, 90, 14, 46, 23, 0)
s = 28: (0, 71, 42, 35, 10, 83, 15, 120, 15, 38, 35, 0)
s = 29: (0, 68, 67, 20, 17, 37, 16, 147, 15, 32, 44, 0)
s = 30: (0, 50, 68, 25, 12, 47, 20, 99, 13, 23, 30, 0)
s = 31: (0, 89, 59, 32, 16, 35, 22, 146, 17, 32, 18, 0)
s = 32: (0, 67, 48, 24, 10, 33, 15, 80, 17, 37, 44, 0)
s = 33: (0, 52, 53, 34, 7, 62, 18, 115, 11, 26, 31, 0)
s = 34: (0, 62, 88, 37, 7, 53, 18, 161, 13, 36, 22, 0)
s = 35: (0, 40, 67, 34, 10, 50, 17, 119, 23, 31, 49, 0)
s = 36: (0, 93, 59, 32, 9, 69, 15, 120, 18, 44, 40, 0)
s = 37: (0, 77, 45, 38, 16, 49, 18, 73, 24, 32, 43, 0)
s = 38: (0, 45, 48, 26, 8, 29, 26, 117, 14, 30, 26, 0)
s = 39: (0, 55, 91, 41, 7, 78, 20, 88, 11, 27, 24, 0)
s = 40: (0, 35, 69, 29, 13, 29, 19, 92, 13, 31, 26, 0)
s = 41: (0, 77, 50, 22, 14, 38, 11, 128, 11, 28, 19, 0)
s = 42: (0, 46, 35, 42, 10, 62, 13, 87, 12, 21, 48, 0)
s = 43: (0, 48, 54, 22, 8, 40, 20, 115, 9, 44, 20, 0)
s = 44: (0, 44, 53, 44, 19, 58, 13, 89, 8, 33, 32, 0)
s = 45: (0, 48, 53, 43, 13, 42, 17, 107, 16, 44, 26, 0)
s = 46: (0, 93, 56, 42, 16, 46, 15, 177, 10, 44, 26, 0)
s = 47: (0, 50, 66, 23, 11, 47, 19, 98, 12, 35, 26, 0)
s = 48: (0, 61, 51, 21, 15, 69, 14, 116, 13, 28, 37, 0)
s = 49: (0, 62, 53, 27, 14, 53, 20, 143, 10, 28, 33, 0)
s = 50: (0, 46, 64, 40, 17, 42, 13, 118, 9, 44, 22, 0)
s = 51: (0, 49, 58, 32, 15, 56, 13, 119, 11, 41, 19, 0)
s = 52: (0, 38, 56, 19, 14, 29, 23, 119, 15, 28, 26, 0)
s = 53: (0, 39, 64, 37, 14, 50, 10, 153, 12, 44, 22, 0)
s = 54: (0, 50, 74, 28, 13, 57, 19, 74, 11, 31, 27, 0)
s = 55: (0, 70, 52, 39, 15, 75, 16, 92, 9, 39, 35, 0)
s = 56: (0, 61, 47, 45, 9, 34, 22, 106, 15, 47, 29, 0)
s = 57: (0, 70, 64, 37, 22, 32, 12, 110, 11, 52, 51, 0)
s = 58: (0, 78, 70, 30, 7, 49, 20, 91, 13, 57, 30, 0)
s = 59: (0, 58, 74, 47, 19, 26, 26, 93, 10, 67, 38, 0)
s = 60: (0, 44, 80, 34, 9, 34, 16, 123, 15, 28, 20, 0)
s = 61: (0, 53, 62, 25, 15, 54, 14, 125, 9, 35, 45, 0)
s = 62: (0, 45, 35, 25, 17, 33, 16, 80, 11, 30, 28, 0)
s = 63: (0, 81, 67, 36, 12, 34, 16, 59, 19, 25, 37, 0)
s = 64: (0, 42, 72, 23, 10, 40, 17, 120, 17, 38, 37, 0)
s = 65: (0, 79, 55, 41, 13, 35, 20, 82, 11, 39, 31, 0)
s = 66: (0, 59, 48, 44, 9, 49, 29, 93, 12, 40, 20, 0)
s = 67: (0, 70, 35, 33, 10, 50, 19, 154, 19, 33, 22, 0)
s = 68: (0, 62, 46, 35, 13, 77, 15, 79, 7, 29, 34, 0)
s = 69: (0, 62, 57, 27, 9, 59, 19, 153, 14, 25, 28, 0)
s = 70: (0, 100, 62, 33, 8, 63, 17, 134, 11, 42, 31, 0)
s = 71: (0, 75, 61, 20, 21, 36, 27, 99, 12, 60, 26, 0)
s = 72: (0, 43, 86, 30, 10, 52, 26, 93, 17, 36, 17, 0)
s = 73: (0, 60, 59, 50, 10, 37, 17, 143, 11, 34, 36, 0)
s = 74: (0, 61, 75, 42, 13, 35, 12, 132, 14, 40, 33, 0)
s = 75: (0, 70, 90, 25, 12, 70, 16, 73, 15, 48, 35, 0)
s = 76: (0, 62, 90, 46, 12, 59, 21, 71, 11, 39, 53, 0)
s = 77: (0, 63, 48, 20, 17, 38, 20, 109, 14, 40, 45, 0)
s = 78: (0, 92, 44, 42, 10, 70, 21, 79, 11, 61, 29, 0)
s = 79: (0, 50, 79, 23, 7, 38, 31, 76, 14, 51, 34, 0)
s = 80: (0, 40, 37, 27, 14, 36, 16, 106, 8, 35, 39, 0)
s = 81: (0, 50, 62, 29, 12, 42, 25, 84, 19, 33, 29, 0)
s = 82: (0, 38, 53, 32, 15, 67, 23, 65, 15, 29, 42, 0)
s = 83: (0, 46, 70, 42, 14, 56, 15, 76, 9, 48, 42, 0)
s = 84: (0, 41, 48, 39, 7, 38, 11, 161, 12, 28, 35, 0)
s = 85: (0, 44, 95, 24, 7, 40, 16, 165, 24, 60, 24, 0)
s = 86: (0, 66, 70, 31, 13, 52, 17, 57, 15, 37, 32, 0)
s = 87: (0, 55, 82, 42, 13, 29, 20, 165, 11, 27, 33, 0)
s = 88: (0, 70, 58, 27, 17, 56, 20, 76, 9, 34, 25, 0)
s = 89: (0, 50, 84, 29, 19, 49, 20, 129, 16, 24, 36, 0)
s = 90: (0, 63, 61, 44, 12, 81, 11, 142, 18, 55, 27, 0)
s = 91: (0, 31, 43, 35, 12, 34, 15, 123, 12, 69, 49, 0)
s = 92: (0, 71, 52, 18, 10, 47, 22, 112, 13, 35, 42, 0)
s = 93: (0, 47, 85, 27, 7, 76, 21, 125, 13, 30, 37, 0)
s = 94: (0, 66, 80, 39, 14, 64, 22, 79, 12, 44, 35, 0)
s = 95: (0, 54, 91, 29, 10, 44, 11, 77, 14, 54, 26, 0)
s = 96: (0, 73, 42, 26, 14, 43, 27, 104, 9, 39, 30, 0)
s = 97: (0, 52, 57, 28, 9, 64, 13, 111, 13, 35, 31, 0)
s = 98: (0, 51, 71, 24, 9, 74, 18, 100, 12, 22, 41, 0)
s = 99: (0, 64, 85, 53, 17, 64, 15, 134, 9, 35, 27, 0)
s = 100: (0, 46, 46, 38, 10, 78, 20, 70, 23, 47, 29, 0)
s = 101: (0, 38, 83, 28, 10, 60, 17, 98, 14, 56, 17, 0)
s = 102: (0, 37, 61, 42, 12, 28, 19, 100, 17, 48, 38, 0)
s = 103: (0, 37, 56, 21, 9, 73, 28, 121, 19, 42, 19, 0)
s = 104: (0, 75, 52, 27, 14, 36, 22, 97, 10, 34, 22, 0)
s = 105: (0, 74, 47, 35, 9, 47, 21, 102, 12, 35, 29, 0)
s = 106: (0, 47, 62, 33, 11, 58, 20, 92, 13, 34, 38, 0)
s = 107: (0, 83, 61, 22, 9, 79, 20, 80, 12, 30, 26, 0)
s = 108: (0, 69, 88, 56, 10, 63, 11, 169, 16, 51, 30, 0)
s = 109: (0, 49, 37, 39, 14, 36, 19, 115, 21, 50, 28, 0)
s = 110: (0, 70, 95, 32, 14, 54, 13, 98, 13, 43, 22, 0)
s = 111: (0, 75, 80, 39, 9, 59, 26, 69, 7, 24, 23, 0)
s = 112: (0, 45, 63, 33, 11, 27, 19, 108, 17, 53, 52, 0)
s = 113: (0, 60, 74, 41, 12, 70, 26, 111, 13, 36, 22, 0)
s = 114: (0, 55, 87, 43, 12, 48, 27, 128, 18, 27, 17, 0)
s = 115: (0, 78, 49, 36, 8, 53, 13, 99, 8, 25, 29, 0)
s = 116: (0, 66, 97, 45, 11, 26, 13, 90, 8, 45, 48, 0)
s = 117: (0, 53, 52, 34, 9, 50, 27, 93, 17, 55, 20, 0)
s = 118: (0, 47, 54, 21, 9, 45, 29, 55, 13, 37, 26, 0)
s = 119: (0, 45, 71, 26, 20, 45, 13, 104, 13, 35, 37, 0)
s = 120: (0, 80, 46, 28, 11, 50, 13, 64, 11, 53, 49, 0)
s = 121: (0, 82, 56, 33, 14, 53, 12, 69, 12, 61, 26, 0)
s = 122: (0, 37, 49, 50, 15, 32, 28, 78, 21, 57, 35, 0)
s = 123: (0, 51, 44, 32, 17, 35, 13, 82, 10, 50, 35, 0)
s = 124: (0, 63, 101, 41, 12, 39, 24, 128, 15, 22, 36, 0)
s = 125: (0, 52, 46, 24, 14, 87, 19, 151, 12, 51, 34, 0)
s = 126: (0, 68, 70, 42, 13, 29, 14, 102, 21, 32, 47, 0)
s = 127: (0, 82, 45, 47, 11, 52, 19, 70, 15, 68, 18, 0)
s = 128: (0, 52, 95, 57, 12, 73, 15, 100, 17, 28, 30, 0)
s = 129: (0, 61, 93, 21, 10, 39, 20, 116, 13, 27, 31, 0)
s = 130: (0, 71, 67, 30, 9, 37, 9, 98, 13, 31, 23, 0)
s = 131: (0, 56, 54, 58, 12, 70, 19, 107, 13, 36, 43, 0)
s = 132: (0, 53, 83, 49, 7, 53, 15, 79, 12, 26, 40, 0)
s = 133: (0, 42, 63, 43, 9, 44, 12, 74, 15, 67, 34, 0)
s = 134: (0, 65, 65, 53, 9, 45, 20, 89, 21, 39, 22, 0)
s = 135: (0, 49, 76, 28, 8, 64, 18, 151, 15, 41, 38, 0)
s = 136: (0, 42, 62, 23, 17, 60, 14, 113, 17, 58, 17, 0)
s = 137: (0, 77, 73, 24, 9, 43, 12, 97, 10, 28, 27, 0)
s = 138: (0, 52, 56, 45, 13, 41, 22, 96, 15, 40, 39, 0)
s = 139: (0, 88, 45, 32, 16, 34, 21, 100, 13, 42, 26, 0)
s = 140: (0, 67, 60, 51, 15, 45, 14, 67, 12, 49, 19, 0)
s = 141: (0, 71, 130, 26, 17, 39, 19, 94, 15, 27, 35, 0)
s = 142: (0, 37, 50, 35, 8, 38, 18, 82, 12, 36, 30, 0)
s = 143: (0, 38, 72, 29, 7, 31, 16, 117, 12, 39, 23, 0)
s = 144: (0, 49, 38, 25, 16, 43, 13, 87, 13, 44, 21, 0)
s = 145: (0, 39, 56, 22, 11, 70, 13, 85, 21, 38, 31, 0)
s = 146: (0, 42, 68, 35, 13, 52, 17, 124, 12, 38, 27, 0)
s = 147: (0, 46, 67, 20, 14, 65, 18, 142, 12, 26, 31, 0)
s = 148: (0, 63, 97, 32, 14, 45, 18, 111, 9, 51, 22, 0)
s = 149: (0, 53, 58, 48, 7, 51, 23, 111, 11, 31, 30, 0)
s = 150: (0, 63, 90, 25, 14, 41, 24, 110, 12, 53, 23, 0)
s = 151: (0, 37, 56, 39, 15, 37, 11, 131, 11, 36, 29, 0)
s = 152: (0, 49, 104, 35, 21, 51, 17, 75, 12, 55, 38, 0)
s = 153: (0, 40, 49, 23, 17, 52, 25, 116, 15, 43, 19, 0)
s = 154: (0, 42, 52, 37, 13, 39, 13, 92, 10, 38, 32, 0)
s = 155: (0, 70, 37, 44, 17, 62, 29, 66, 17, 30, 31, 0)
s = 156: (0, 54, 93, 47, 15, 54, 28, 119, 13, 32, 29, 0)
s = 157: (0, 33, 49, 24, 11, 58, 23, 114, 14, 42, 39, 0)
s = 158: (0, 57, 70, 23, 9, 43, 18, 86, 13, 49, 42, 0)
s = 159: (0, 54, 86, 30, 9, 80, 12, 150, 11, 37, 26, 0)
s = 160: (0, 61, 68, 37, 15, 32, 18, 79, 18, 23, 25, 0)
s = 161: (0, 63, 82, 38, 21, 60, 12, 132, 11, 45, 24, 0)
s = 162: (0, 48, 43, 36, 13, 54, 21, 92, 13, 55, 35, 0)
s = 163: (0, 38, 88, 24, 11, 64, 21, 180, 16, 57, 22, 0)
s = 164: (0, 38, 55, 30, 13, 53, 26, 70, 14, 25, 34, 0)
s = 165: (0, 41, 41, 23, 11, 52, 11, 97, 15, 52, 32, 0)
s = 166: (0, 61, 63, 34, 21, 37, 18, 94, 22, 46, 43, 0)
s = 167: (0, 80, 37, 54, 17, 73, 13, 186, 13, 43, 22, 0)
s = 168: (0, 69, 42, 58, 7, 43, 16, 95, 16, 56, 23, 0)
s = 169: (0, 40, 85, 18, 14, 58, 10, 103, 11, 50, 20, 0)
s = 170: (0, 41, 89, 40, 20, 49, 20, 60, 17, 30, 41, 0)
s = 171: (0, 86, 78, 34, 9, 65, 18, 83, 12, 37, 34, 0)
s = 172: (0, 57, 52, 43, 14, 78, 15, 71, 12, 35, 29, 0)
s = 173: (0, 65, 68, 34, 13, 35, 18, 118, 12, 42, 20, 0)
s = 174: (0, 88, 66, 27, 9, 37, 14, 82, 11, 32, 42, 0)
s = 175: (0, 42, 65, 29, 9, 41, 13, 142, 17, 28, 38, 0)
s = 176: (0, 50, 36, 32, 8, 42, 10, 87, 17, 26, 31, 0)
s = 177: (0, 61, 74, 37, 15, 48, 22, 63, 18, 41, 20, 0)
s = 178: (0, 65, 87, 42, 13, 35, 18, 103, 18, 41, 21, 0)
s = 179: (0, 51, 39, 43, 11, 77, 13, 142, 13, 27, 28, 0)
s = 180: (0, 56, 83, 39, 16, 44, 15, 115, 15, 38, 24, 0)
s = 181: (0, 83, 54, 46, 11, 53, 28, 135, 17, 44, 26, 0)
s = 182: (0, 43, 96, 24, 10, 49, 21, 95, 13, 44, 27, 0)
s = 183: (0, 72, 68, 39, 9, 67, 13, 163, 12, 23, 30, 0)
s = 184: (0, 70, 89, 25, 12, 38, 13, 91, 18, 31, 20, 0)
s = 185: (0, 39, 80, 35, 22, 54, 14, 76, 11, 65, 23, 0)
s = 186: (0, 53, 76, 24, 12, 48, 15, 104, 11, 49, 32, 0)
s = 187: (0, 46, 79, 23, 7, 60, 13, 87, 14, 33, 22, 0)
s = 188: (0, 68, 57, 43, 15, 54, 18, 115, 19, 39, 27, 0)
s = 189: (0, 48, 56, 51, 10, 33, 17, 71, 16, 26, 17, 0)
s = 190: (0, 58, 108, 50, 12, 43, 20, 135, 9, 55, 32, 0)
s = 191: (0, 71, 73, 19, 15, 60, 22, 160, 13, 48, 23, 0)
s = 192: (0, 51, 54, 36, 13, 44, 11, 121, 17, 39, 41, 0)
s = 193: (0, 63, 47, 54, 16, 52, 17, 87, 14, 47, 35, 0)
s = 194: (0, 45, 55, 51, 10, 30, 14, 59, 11, 54, 46, 0)
s = 195: (0, 63, 81, 38, 13, 38, 22, 128, 17, 58, 25, 0)
s = 196: (0, 104, 54, 50, 9, 73, 13, 77, 15, 26, 25, 0)
s = 197: (0, 65, 78, 25, 13, 53, 26, 104, 17, 61, 47, 0)
s = 198: (0, 86, 58, 34, 10, 32, 12, 109, 9, 23, 28, 0)
s = 199: (0, 44, 46, 27, 9, 44, 24, 109, 12, 46, 30, 0)
s = 200: (0, 49, 71, 36, 12, 40, 17, 98, 13, 61, 29, 0)
------------------------------------------------------------------------
RESOURCE k = 2
s = 1: (0, 21, 29, 26, 12, 32, 12, 72, 13, 35, 48, 0)
s = 2: (0, 20, 68, 65, 6, 24, 11, 85, 14, 38, 34, 0)
s = 3: (0, 31, 59, 41, 6, 31, 14, 108, 10, 54, 53, 0)
s = 4: (0, 27, 49, 38, 8, 46, 14, 74, 12, 59, 29, 0)
s = 5: (0, 23, 35, 57, 11, 40, 10, 54, 14, 73, 49, 0)
s = 6: (0, 18, 53, 43, 7, 30, 11, 43, 14, 68, 59, 0)
s = 7: (0, 19, 52, 47, 14, 41, 9, 74, 14, 86, 31, 0)
s = 8: (0, 31, 48, 40, 11, 53, 15, 98, 12, 34, 26, 0)
s = 9: (0, 19, 32, 27, 9, 28, 22, 44, 15, 42, 52, 0)
s = 10: (0, 20, 54, 41, 6, 33, 19, 59, 11, 31, 21, 0)
s = 11: (0, 15, 47, 42, 12, 22, 22, 69, 10, 30, 32, 0)
s = 12: (0, 25, 57, 25, 13, 46, 19, 86, 8, 33, 25, 0)
s = 13: (0, 21, 54, 30, 12, 37, 15, 58, 15, 48, 41, 0)
s = 14: (0, 24, 51, 56, 6, 30, 12, 71, 17, 44, 38, 0)
s = 15: (0, 16, 47, 36, 11, 49, 9, 68, 7, 30, 58, 0)
s = 16: (0, 16, 41, 59, 9, 23, 13, 94, 13, 48, 30, 0)
s = 17: (0, 33, 65, 60, 9, 45, 21, 83, 8, 76, 23, 0)
s = 18: (0, 20, 31, 30, 13, 49, 18, 69, 13, 34, 32, 0)
s = 19: (0, 34, 82, 49, 8, 35, 11, 74, 9, 45, 31, 0)
s = 20: (0, 21, 34, 57, 8, 31, 11, 69, 9, 77, 56, 0)
s = 21: (0, 26, 56, 50, 11, 48, 18, 104, 10, 55, 25, 0)
s = 22: (0, 31, 68, 33, 16, 43, 23, 104, 12, 41, 47, 0)
s = 23: (0, 28, 41, 30, 11, 33, 14, 47, 6, 69, 22, 0)
s = 24: (0, 17, 62, 37, 11, 37, 16, 66, 10, 68, 35, 0)
s = 25: (0, 28, 40, 43, 8, 41, 22, 86, 16, 37, 36, 0)
s = 26: (0, 45, 42, 36, 12, 38, 16, 80, 8, 27, 33, 0)
s = 27: (0, 19, 34, 26, 7, 38, 21, 66, 12, 56, 27, 0)
s = 28: (0, 30, 34, 42, 8, 62, 14, 88, 13, 46, 42, 0)
s = 29: (0, 29, 55, 23, 13, 28, 15, 108, 13, 39, 53, 0)
s = 30: (0, 21, 55, 29, 9, 35, 19, 73, 11, 28, 36, 0)
s = 31: (0, 38, 48, 38, 12, 26, 20, 107, 14, 39, 22, 0)
s = 32: (0, 28, 39, 29, 7, 25, 14, 59, 15, 45, 52, 0)
s = 33: (0, 22, 43, 41, 5, 46, 17, 85, 10, 32, 37, 0)
s = 34: (0, 26, 71, 44, 5, 40, 17, 118, 11, 44, 27, 0)
s = 35: (0, 17, 55, 40, 8, 38, 16, 87, 19, 38, 58, 0)
s = 36: (0, 39, 48, 37, 7, 52, 14, 88, 15, 54, 48, 0)
s = 37: (0, 33, 37, 45, 12, 37, 17, 54, 20, 39, 52, 0)
s = 38: (0, 19, 39, 30, 6, 22, 25, 86, 12, 37, 31, 0)
s = 39: (0, 24, 74, 49, 6, 59, 19, 65, 9, 33, 29, 0)
s = 40: (0, 15, 56, 34, 10, 22, 18, 68, 11, 38, 31, 0)
s = 41: (0, 33, 40, 26, 11, 29, 11, 94, 9, 34, 22, 0)
s = 42: (0, 20, 28, 49, 8, 47, 13, 64, 10, 26, 57, 0)
s = 43: (0, 21, 44, 26, 6, 30, 19, 84, 8, 54, 24, 0)
s = 44: (0, 19, 43, 52, 14, 44, 13, 65, 7, 40, 38, 0)
s = 45: (0, 21, 43, 51, 10, 31, 16, 79, 13, 54, 32, 0)
s = 46: (0, 40, 45, 50, 12, 35, 14, 130, 9, 54, 31, 0)
s = 47: (0, 21, 54, 27, 9, 35, 18, 72, 10, 43, 31, 0)
s = 48: (0, 26, 42, 25, 12, 52, 13, 85, 11, 34, 44, 0)
s = 49: (0, 27, 43, 32, 11, 40, 19, 105, 8, 34, 40, 0)
s = 50: (0, 20, 52, 47, 13, 31, 12, 87, 8, 54, 27, 0)
s = 51: (0, 21, 48, 38, 11, 42, 13, 87, 9, 51, 23, 0)
s = 52: (0, 16, 46, 22, 11, 22, 22, 87, 13, 34, 32, 0)
s = 53: (0, 17, 52, 43, 11, 37, 10, 112, 10, 54, 27, 0)
s = 54: (0, 21, 60, 33, 10, 43, 18, 54, 10, 38, 33, 0)
s = 55: (0, 30, 42, 46, 11, 57, 16, 68, 7, 48, 42, 0)
s = 56: (0, 26, 38, 53, 7, 26, 21, 78, 13, 58, 35, 0)
s = 57: (0, 30, 52, 43, 17, 24, 11, 81, 10, 64, 62, 0)
s = 58: (0, 33, 57, 36, 6, 37, 19, 67, 11, 70, 36, 0)
s = 59: (0, 25, 60, 55, 14, 20, 24, 69, 9, 83, 46, 0)
s = 60: (0, 19, 65, 40, 7, 26, 15, 91, 13, 34, 24, 0)
s = 61: (0, 22, 51, 30, 12, 41, 13, 92, 8, 43, 54, 0)
s = 62: (0, 19, 29, 30, 13, 25, 15, 59, 10, 37, 34, 0)
s = 63: (0, 34, 54, 43, 9, 26, 15, 44, 16, 31, 44, 0)
s = 64: (0, 18, 59, 28, 7, 30, 16, 88, 15, 46, 45, 0)
s = 65: (0, 34, 45, 49, 10, 26, 19, 60, 10, 48, 38, 0)
s = 66: (0, 25, 39, 51, 7, 37, 28, 68, 10, 49, 24, 0)
s = 67: (0, 30, 28, 39, 7, 38, 18, 113, 17, 41, 27, 0)
s = 68: (0, 27, 37, 42, 10, 58, 14, 58, 6, 36, 41, 0)
s = 69: (0, 26, 46, 32, 7, 45, 18, 112, 12, 30, 33, 0)
s = 70: (0, 43, 50, 39, 6, 48, 16, 99, 10, 51, 37, 0)
s = 71: (0, 32, 49, 24, 16, 27, 25, 73, 10, 74, 31, 0)
s = 72: (0, 18, 70, 35, 8, 39, 24, 68, 14, 44, 20, 0)
s = 73: (0, 26, 48, 59, 7, 28, 16, 105, 9, 42, 43, 0)
s = 74: (0, 26, 61, 50, 10, 26, 11, 97, 12, 49, 39, 0)
s = 75: (0, 30, 73, 29, 9, 52, 15, 54, 13, 59, 42, 0)
s = 76: (0, 26, 74, 54, 9, 44, 20, 52, 10, 48, 64, 0)
s = 77: (0, 27, 39, 24, 13, 29, 18, 80, 12, 49, 54, 0)
s = 78: (0, 39, 36, 49, 7, 52, 20, 58, 9, 75, 35, 0)
s = 79: (0, 21, 64, 27, 6, 29, 29, 56, 12, 63, 41, 0)
s = 80: (0, 17, 30, 32, 11, 27, 15, 78, 7, 43, 46, 0)
s = 81: (0, 21, 51, 35, 9, 32, 24, 62, 16, 40, 35, 0)
s = 82: (0, 16, 43, 38, 11, 50, 22, 48, 12, 36, 50, 0)
s = 83: (0, 20, 57, 49, 11, 42, 14, 56, 8, 58, 50, 0)
s = 84: (0, 18, 39, 46, 6, 29, 10, 118, 10, 34, 42, 0)
s = 85: (0, 19, 77, 28, 6, 30, 15, 121, 20, 73, 29, 0)
s = 86: (0, 28, 57, 36, 10, 39, 16, 42, 13, 45, 38, 0)
s = 87: (0, 23, 67, 50, 10, 22, 18, 121, 9, 33, 39, 0)
s = 88: (0, 30, 47, 32, 13, 42, 19, 56, 7, 42, 29, 0)
s = 89: (0, 21, 68, 34, 14, 37, 19, 94, 13, 29, 43, 0)
s = 90: (0, 27, 49, 52, 9, 61, 11, 104, 16, 68, 32, 0)
s = 91: (0, 13, 35, 42, 9, 26, 14, 91, 10, 85, 59, 0)
s = 92: (0, 30, 42, 21, 7, 35, 21, 82, 11, 43, 51, 0)
s = 93: (0, 20, 69, 32, 6, 57, 20, 92, 11, 36, 44, 0)
s = 94: (0, 28, 65, 45, 10, 48, 21, 58, 10, 54, 42, 0)
s = 95: (0, 23, 74, 34, 7, 33, 11, 56, 12, 67, 31, 0)
s = 96: (0, 31, 35, 31, 11, 32, 26, 76, 7, 48, 36, 0)
s = 97: (0, 22, 46, 33, 7, 48, 12, 81, 11, 43, 37, 0)
s = 98: (0, 22, 58, 29, 7, 55, 17, 74, 10, 27, 49, 0)
s = 99: (0, 27, 69, 62, 13, 48, 14, 98, 8, 43, 32, 0)
s = 100: (0, 20, 38, 44, 8, 59, 19, 52, 20, 58, 35, 0)
s = 101: (0, 16, 67, 33, 8, 45, 16, 72, 12, 68, 20, 0)
s = 102: (0, 16, 50, 50, 9, 21, 18, 73, 14, 58, 46, 0)
s = 103: (0, 16, 46, 25, 7, 55, 27, 89, 16, 51, 22, 0)
s = 104: (0, 32, 42, 31, 11, 27, 20, 71, 9, 42, 26, 0)
s = 105: (0, 32, 38, 41, 7, 36, 19, 75, 10, 43, 34, 0)
s = 106: (0, 20, 51, 39, 8, 43, 18, 68, 11, 42, 46, 0)
s = 107: (0, 35, 50, 26, 7, 60, 19, 59, 10, 37, 31, 0)
s = 108: (0, 29, 72, 66, 7, 47, 10, 124, 13, 63, 36, 0)
s = 109: (0, 21, 30, 46, 11, 27, 18, 84, 18, 61, 33, 0)
s = 110: (0, 30, 77, 38, 10, 40, 13, 72, 11, 53, 26, 0)
s = 111: (0, 32, 65, 46, 7, 45, 25, 50, 6, 30, 28, 0)
s = 112: (0, 19, 51, 39, 9, 21, 18, 79, 14, 66, 63, 0)
s = 113: (0, 26, 61, 48, 9, 52, 24, 81, 11, 44, 26, 0)
s = 114: (0, 23, 71, 51, 9, 36, 26, 94, 16, 33, 20, 0)
s = 115: (0, 33, 40, 42, 6, 40, 12, 73, 7, 31, 35, 0)
s = 116: (0, 28, 79, 53, 9, 19, 12, 66, 7, 55, 57, 0)
s = 117: (0, 23, 42, 40, 7, 37, 25, 69, 14, 67, 24, 0)
s = 118: (0, 20, 44, 25, 7, 34, 27, 41, 11, 46, 31, 0)
s = 119: (0, 19, 58, 30, 15, 34, 13, 76, 11, 43, 45, 0)
s = 120: (0, 34, 38, 33, 9, 38, 12, 47, 9, 65, 58, 0)
s = 121: (0, 35, 45, 39, 11, 40, 11, 50, 10, 75, 31, 0)
s = 122: (0, 16, 40, 59, 11, 24, 26, 58, 18, 70, 42, 0)
s = 123: (0, 22, 36, 38, 13, 26, 13, 60, 9, 61, 42, 0)
s = 124: (0, 27, 82, 48, 9, 29, 22, 94, 13, 27, 43, 0)
s = 125: (0, 22, 37, 28, 11, 65, 18, 111, 10, 62, 40, 0)
s = 126: (0, 29, 57, 50, 10, 22, 13, 75, 18, 39, 57, 0)
s = 127: (0, 35, 37, 55, 8, 39, 18, 51, 13, 84, 22, 0)
s = 128: (0, 22, 77, 67, 9, 55, 14, 74, 14, 34, 36, 0)
s = 129: (0, 26, 76, 25, 8, 29, 19, 85, 11, 34, 37, 0)
s = 130: (0, 30, 55, 35, 7, 28, 9, 72, 11, 38, 27, 0)
s = 131: (0, 24, 44, 68, 9, 52, 18, 79, 11, 44, 52, 0)
s = 132: (0, 23, 67, 58, 6, 40, 14, 58, 10, 32, 48, 0)
s = 133: (0, 18, 52, 51, 7, 33, 11, 55, 12, 83, 41, 0)
s = 134: (0, 28, 53, 63, 7, 34, 19, 65, 18, 48, 27, 0)
s = 135: (0, 21, 62, 33, 6, 48, 17, 111, 12, 50, 45, 0)
s = 136: (0, 18, 50, 27, 13, 45, 14, 83, 14, 71, 21, 0)
s = 137: (0, 33, 60, 28, 7, 33, 12, 71, 9, 35, 32, 0)
s = 138: (0, 22, 46, 53, 10, 31, 21, 71, 13, 49, 47, 0)
s = 139: (0, 37, 37, 38, 12, 26, 19, 73, 11, 52, 31, 0)
s = 140: (0, 29, 49, 60, 11, 34, 13, 50, 10, 60, 23, 0)
s = 141: (0, 30, 105, 30, 13, 30, 18, 69, 13, 34, 42, 0)
s = 142: (0, 16, 40, 41, 6, 29, 17, 60, 10, 44, 36, 0)
s = 143: (0, 16, 58, 35, 5, 23, 15, 86, 10, 47, 28, 0)
s = 144: (0, 21, 31, 29, 12, 33, 12, 64, 11, 54, 25, 0)
s = 145: (0, 17, 46, 26, 8, 52, 13, 62, 18, 47, 37, 0)
s = 146: (0, 18, 56, 41, 10, 39, 16, 91, 10, 46, 32, 0)
s = 147: (0, 20, 55, 24, 11, 49, 17, 104, 10, 32, 37, 0)
s = 148: (0, 27, 79, 38, 10, 34, 17, 82, 8, 63, 27, 0)
s = 149: (0, 23, 47, 56, 5, 38, 22, 82, 9, 38, 36, 0)
s = 150: (0, 27, 73, 30, 10, 31, 22, 81, 10, 65, 28, 0)
s = 151: (0, 16, 46, 46, 11, 28, 11, 96, 9, 45, 35, 0)
s = 152: (0, 21, 85, 41, 16, 38, 16, 55, 10, 68, 45, 0)
s = 153: (0, 17, 40, 27, 13, 39, 23, 85, 13, 53, 23, 0)
s = 154: (0, 18, 42, 44, 10, 29, 12, 67, 8, 47, 38, 0)
s = 155: (0, 30, 30, 52, 13, 47, 27, 48, 14, 37, 37, 0)
s = 156: (0, 23, 75, 56, 12, 40, 26, 87, 11, 39, 34, 0)
s = 157: (0, 14, 40, 28, 9, 43, 21, 84, 12, 51, 46, 0)
s = 158: (0, 24, 57, 27, 7, 32, 17, 64, 11, 60, 50, 0)
s = 159: (0, 23, 70, 36, 7, 60, 11, 110, 9, 45, 31, 0)
s = 160: (0, 26, 55, 43, 12, 24, 17, 58, 15, 29, 30, 0)
s = 161: (0, 27, 67, 45, 16, 45, 12, 97, 10, 56, 28, 0)
s = 162: (0, 20, 35, 43, 10, 40, 19, 68, 11, 67, 42, 0)
s = 163: (0, 16, 71, 28, 8, 48, 19, 132, 13, 70, 26, 0)
s = 164: (0, 16, 45, 35, 10, 40, 24, 52, 12, 30, 41, 0)
s = 165: (0, 17, 33, 27, 8, 39, 11, 71, 13, 64, 39, 0)
s = 166: (0, 26, 52, 41, 16, 28, 17, 69, 18, 56, 52, 0)
s = 167: (0, 34, 30, 64, 13, 55, 12, 136, 11, 52, 26, 0)
s = 168: (0, 29, 34, 69, 6, 32, 15, 70, 14, 68, 27, 0)
s = 169: (0, 17, 69, 22, 10, 44, 9, 76, 10, 61, 23, 0)
s = 170: (0, 17, 72, 48, 15, 37, 19, 44, 15, 37, 49, 0)
s = 171: (0, 36, 63, 40, 7, 49, 17, 61, 10, 46, 41, 0)
s = 172: (0, 24, 43, 51, 11, 59, 14, 52, 11, 43, 35, 0)
s = 173: (0, 28, 55, 40, 10, 27, 17, 86, 10, 51, 23, 0)
s = 174: (0, 37, 54, 31, 7, 28, 14, 60, 9, 40, 50, 0)
s = 175: (0, 18, 53, 34, 7, 31, 12, 105, 15, 34, 45, 0)
s = 176: (0, 21, 29, 38, 6, 32, 9, 64, 14, 32, 37, 0)
s = 177: (0, 26, 60, 44, 11, 36, 21, 47, 15, 51, 24, 0)
s = 178: (0, 28, 71, 49, 10, 26, 17, 76, 16, 50, 25, 0)
s = 179: (0, 22, 32, 51, 8, 58, 13, 104, 11, 34, 34, 0)
s = 180: (0, 24, 68, 46, 12, 33, 14, 85, 13, 46, 29, 0)
s = 181: (0, 35, 44, 54, 8, 40, 26, 99, 14, 54, 31, 0)
s = 182: (0, 18, 78, 28, 7, 37, 19, 69, 11, 55, 33, 0)
s = 183: (0, 31, 55, 46, 7, 51, 12, 120, 10, 28, 36, 0)
s = 184: (0, 30, 73, 30, 9, 29, 12, 67, 15, 39, 24, 0)
s = 185: (0, 17, 65, 41, 17, 40, 13, 56, 10, 80, 27, 0)
s = 186: (0, 23, 61, 28, 9, 36, 14, 76, 10, 61, 39, 0)
s = 187: (0, 19, 64, 27, 5, 45, 13, 64, 12, 41, 26, 0)
s = 188: (0, 29, 46, 51, 11, 41, 17, 84, 16, 47, 32, 0)
s = 189: (0, 20, 46, 60, 8, 25, 16, 52, 13, 32, 20, 0)
s = 190: (0, 25, 88, 59, 9, 32, 19, 99, 8, 68, 38, 0)
s = 191: (0, 30, 60, 22, 12, 45, 21, 118, 11, 59, 28, 0)
s = 192: (0, 22, 44, 43, 10, 33, 10, 89, 15, 47, 49, 0)
s = 193: (0, 27, 38, 64, 12, 39, 16, 64, 12, 58, 42, 0)
s = 194: (0, 19, 44, 60, 7, 23, 13, 43, 10, 67, 55, 0)
s = 195: (0, 27, 66, 45, 10, 28, 21, 94, 15, 71, 30, 0)
s = 196: (0, 44, 44, 59, 7, 55, 12, 56, 13, 31, 30, 0)
s = 197: (0, 28, 64, 29, 10, 40, 25, 77, 14, 75, 56, 0)
s = 198: (0, 36, 47, 40, 7, 24, 12, 80, 8, 28, 34, 0)
s = 199: (0, 19, 38, 32, 7, 33, 23, 80, 10, 56, 36, 0)
s = 200: (0, 21, 58, 42, 9, 30, 16, 72, 11, 75, 34, 0)
************************************************************************
ES/LS-VALUES:
jobnr.   ES(i)    LS(i)
------------------------------------------------------------------------
  0        0        0
  1        0       60
  2        0       62
  3        0       54
  4        8       71
  5        5       60
  6       10       73
  7       10       66
  8       22       79
  9       11       75
 10       11       77
 11       23       81
************************************************************************
BIG-M-VALUES:
M1 = 47, M2 = 322
************************************************************************
